(set-info :smt-lib-version 2.6)
(set-logic QF_NIA)
(set-info :source |
Generated by: Cristina Borralleras, Daniel Larraz, Albert Oliveras, Enric Rodriguez-Carbonell, Albert Rubio
Generated on: 2017-04-27
Generator: VeryMax
Application: Termination proving
Target solver: barcelogic
|)
(set-info :license "https://creativecommons.org/licenses/by/4.0/")
(set-info :category "industrial")
(set-info :status sat)
(declare-fun Nl2main_x1 () Int)
(declare-fun Nl2main_y1 () Int)
(declare-fun lam0n0 () Int)
(declare-fun lam0n1 () Int)
(declare-fun lam0n2 () Int)
(declare-fun lam0n3 () Int)
(declare-fun lam0n4 () Int)
(declare-fun lam0n5 () Int)
(declare-fun lam0n6 () Int)
(declare-fun Nl2CT1 () Int)
(declare-fun lam1n0 () Int)
(declare-fun lam1n1 () Int)
(declare-fun lam1n2 () Int)
(declare-fun lam1n3 () Int)
(declare-fun lam1n4 () Int)
(declare-fun lam1n5 () Int)
(declare-fun lam1n6 () Int)
(declare-fun lam2n0 () Int)
(declare-fun lam2n1 () Int)
(declare-fun lam2n2 () Int)
(declare-fun lam2n3 () Int)
(declare-fun lam2n4 () Int)
(declare-fun lam2n5 () Int)
(declare-fun lam2n6 () Int)
(declare-fun lam2n7 () Int)
(declare-fun main_x () Int)
(declare-fun main_y () Int)
(declare-fun undef3 () Int)
(declare-fun undef4 () Int)
(declare-fun lam6n0 () Int)
(declare-fun lam6n1 () Int)
(declare-fun lam6n2 () Int)
(declare-fun lam6n3 () Int)
(declare-fun lam6n4 () Int)
(declare-fun lam6n5 () Int)
(declare-fun lam6n6 () Int)
(declare-fun RFN1_CT () Int)
(declare-fun RFN1_main_x () Int)
(declare-fun RFN1_main_y () Int)
(declare-fun lam4n0 () Int)
(declare-fun lam4n1 () Int)
(declare-fun lam4n2 () Int)
(declare-fun lam4n3 () Int)
(declare-fun lam4n4 () Int)
(declare-fun lam4n5 () Int)
(declare-fun lam4n6 () Int)
(declare-fun lam5n0 () Int)
(declare-fun lam5n1 () Int)
(declare-fun lam5n2 () Int)
(declare-fun lam5n3 () Int)
(declare-fun lam5n4 () Int)
(declare-fun lam5n5 () Int)
(declare-fun lam5n6 () Int)
(declare-fun lam3n0 () Int)
(declare-fun lam3n1 () Int)
(declare-fun lam3n2 () Int)
(declare-fun lam3n3 () Int)
(declare-fun lam3n4 () Int)
(declare-fun lam3n5 () Int)
(declare-fun lam3n6 () Int)
(assert ( and ( <= ( - 1 ) Nl2main_x1 ) ( <= Nl2main_x1 1 ) ( <= ( - 1 ) Nl2main_y1 ) ( <= Nl2main_y1 1 ) ))
(assert ( or ( and ( >= lam0n0 0 ) ( >= lam0n1 0 ) ( >= lam0n2 0 ) ( >= lam0n3 0 ) ( >= lam0n4 0 ) ( >= lam0n5 0 ) ( >= lam0n6 0 ) ( > ( + ( * ( - 4 ) lam0n0 ) ( * ( - 7 ) lam0n1 ) ( * ( - 6 ) lam0n2 ) ( * ( - 11 ) lam0n3 ) ( * ( - 10 ) lam0n4 ) ( * ( - 19 ) lam0n5 ) ( * Nl2CT1 lam0n6 ) ( - 1 ) ) 0 ) ( = ( + ( * 1 lam0n0 ) ( * 1 lam0n1 ) ( * ( - 1 ) lam0n3 ) ( * ( - 1 ) lam0n4 ) ( * ( - 1 ) lam0n5 ) ( * Nl2main_x1 lam0n6 ) ) 0 ) ( = ( + ( * ( - 1 ) lam0n1 ) ( * ( - 1 ) lam0n2 ) ( * ( - 1 ) lam0n3 ) ( * 1 lam0n5 ) ( * Nl2main_y1 lam0n6 ) ) 0 ) ) ( and ( >= lam1n0 0 ) ( >= lam1n1 0 ) ( >= lam1n2 0 ) ( >= lam1n3 0 ) ( >= lam1n4 0 ) ( >= lam1n5 0 ) ( >= lam1n6 0 ) ( > ( + ( * ( - 4 ) lam1n0 ) ( * ( - 7 ) lam1n1 ) ( * ( - 6 ) lam1n2 ) ( * ( - 11 ) lam1n3 ) ( * ( - 10 ) lam1n4 ) ( * ( - 19 ) lam1n5 ) ( * Nl2CT1 lam1n6 ) ( - 1 ( + ( + Nl2CT1 ( * Nl2main_x1 0 ) ) ( * Nl2main_y1 0 ) ) ) ) 0 ) ( = ( + ( * 1 lam1n0 ) ( * 1 lam1n1 ) ( * ( - 1 ) lam1n3 ) ( * ( - 1 ) lam1n4 ) ( * ( - 1 ) lam1n5 ) ( * Nl2main_x1 lam1n6 ) ( - ( + ( + 0 ( * Nl2main_x1 1 ) ) ( * Nl2main_y1 1 ) ) ) ) 0 ) ( = ( + ( * ( - 1 ) lam1n1 ) ( * ( - 1 ) lam1n2 ) ( * ( - 1 ) lam1n3 ) ( * 1 lam1n5 ) ( * Nl2main_y1 lam1n6 ) ( - ( + ( + 0 ( * Nl2main_x1 ( - 1 ) ) ) ( * Nl2main_y1 1 ) ) ) ) 0 ) ) ))
(assert ( and ( not ( <= ( + 5 ( * ( - 1 ) main_x ) ) 0 ) ) ( not ( <= ( + 8 ( * ( - 1 ) main_x ) main_y ) 0 ) ) ( not ( <= ( + 7 main_y ) 0 ) ) ( not ( <= ( + 12 main_x main_y ) 0 ) ) ( not ( <= ( + 11 main_x ) 0 ) ) ( not ( <= ( + 20 main_x ( * ( - 1 ) main_y ) ) 0 ) ) ( = ( + main_x ( * ( - 1 ) undef3 ) ) 0 ) ( = ( + main_y ( * ( - 1 ) undef4 ) ) 0 ) ( <= ( + Nl2CT1 ( * ( + 0 Nl2main_x1 ) main_x ) ( * ( + 0 Nl2main_y1 ) main_y ) ) 0 ) ))
(assert ( or ( and ( and ( >= lam6n0 0 ) ( >= lam6n1 0 ) ( >= lam6n2 0 ) ( >= lam6n3 0 ) ( >= lam6n4 0 ) ( >= lam6n5 0 ) ( >= lam6n6 0 ) ( > ( + ( * ( - 4 ) lam6n0 ) ( * ( - 7 ) lam6n1 ) ( * ( - 6 ) lam6n2 ) ( * ( - 11 ) lam6n3 ) ( * ( - 10 ) lam6n4 ) ( * ( - 19 ) lam6n5 ) ( * Nl2CT1 lam6n6 ) ( - 1 ( - ( + ( + RFN1_CT ( * RFN1_main_x 0 ) ) ( * RFN1_main_y 0 ) ) RFN1_CT ) ) ) 0 ) ( = ( + ( * 1 lam6n0 ) ( * 1 lam6n1 ) ( * ( - 1 ) lam6n3 ) ( * ( - 1 ) lam6n4 ) ( * ( - 1 ) lam6n5 ) ( * Nl2main_x1 lam6n6 ) ( - ( - ( + ( + 0 ( * RFN1_main_x 1 ) ) ( * RFN1_main_y 1 ) ) RFN1_main_x ) ) ) 0 ) ( = ( + ( * ( - 1 ) lam6n1 ) ( * ( - 1 ) lam6n2 ) ( * ( - 1 ) lam6n3 ) ( * 1 lam6n5 ) ( * Nl2main_y1 lam6n6 ) ( - ( - ( + ( + 0 ( * RFN1_main_x ( - 1 ) ) ) ( * RFN1_main_y 1 ) ) RFN1_main_y ) ) ) 0 ) ) ( and ( and ( >= lam4n0 0 ) ( >= lam4n1 0 ) ( >= lam4n2 0 ) ( >= lam4n3 0 ) ( >= lam4n4 0 ) ( >= lam4n5 0 ) ( >= lam4n6 0 ) ( > ( + ( * ( - 4 ) lam4n0 ) ( * ( - 7 ) lam4n1 ) ( * ( - 6 ) lam4n2 ) ( * ( - 11 ) lam4n3 ) ( * ( - 10 ) lam4n4 ) ( * ( - 19 ) lam4n5 ) ( * Nl2CT1 lam4n6 ) ( - 1 ( - RFN1_CT ) ) ) 0 ) ( = ( + ( * 1 lam4n0 ) ( * 1 lam4n1 ) ( * ( - 1 ) lam4n3 ) ( * ( - 1 ) lam4n4 ) ( * ( - 1 ) lam4n5 ) ( * Nl2main_x1 lam4n6 ) ( - ( - RFN1_main_x ) ) ) 0 ) ( = ( + ( * ( - 1 ) lam4n1 ) ( * ( - 1 ) lam4n2 ) ( * ( - 1 ) lam4n3 ) ( * 1 lam4n5 ) ( * Nl2main_y1 lam4n6 ) ( - ( - RFN1_main_y ) ) ) 0 ) ) ( and ( >= lam5n0 0 ) ( >= lam5n1 0 ) ( >= lam5n2 0 ) ( >= lam5n3 0 ) ( >= lam5n4 0 ) ( >= lam5n5 0 ) ( >= lam5n6 0 ) ( > ( + ( * ( - 4 ) lam5n0 ) ( * ( - 7 ) lam5n1 ) ( * ( - 6 ) lam5n2 ) ( * ( - 11 ) lam5n3 ) ( * ( - 10 ) lam5n4 ) ( * ( - 19 ) lam5n5 ) ( * Nl2CT1 lam5n6 ) ( - 1 ( + ( - ( + ( + RFN1_CT ( * RFN1_main_x 0 ) ) ( * RFN1_main_y 0 ) ) RFN1_CT ) 1 ) ) ) 0 ) ( = ( + ( * 1 lam5n0 ) ( * 1 lam5n1 ) ( * ( - 1 ) lam5n3 ) ( * ( - 1 ) lam5n4 ) ( * ( - 1 ) lam5n5 ) ( * Nl2main_x1 lam5n6 ) ( - ( - ( + ( + 0 ( * RFN1_main_x 1 ) ) ( * RFN1_main_y 1 ) ) RFN1_main_x ) ) ) 0 ) ( = ( + ( * ( - 1 ) lam5n1 ) ( * ( - 1 ) lam5n2 ) ( * ( - 1 ) lam5n3 ) ( * 1 lam5n5 ) ( * Nl2main_y1 lam5n6 ) ( - ( - ( + ( + 0 ( * RFN1_main_x ( - 1 ) ) ) ( * RFN1_main_y 1 ) ) RFN1_main_y ) ) ) 0 ) ) ) ) ( and ( >= lam3n0 0 ) ( >= lam3n1 0 ) ( >= lam3n2 0 ) ( >= lam3n3 0 ) ( >= lam3n4 0 ) ( >= lam3n5 0 ) ( >= lam3n6 0 ) ( > ( + ( * ( - 4 ) lam3n0 ) ( * ( - 7 ) lam3n1 ) ( * ( - 6 ) lam3n2 ) ( * ( - 11 ) lam3n3 ) ( * ( - 10 ) lam3n4 ) ( * ( - 19 ) lam3n5 ) ( * Nl2CT1 lam3n6 ) ( - 1 ) ) 0 ) ( = ( + ( * 1 lam3n0 ) ( * 1 lam3n1 ) ( * ( - 1 ) lam3n3 ) ( * ( - 1 ) lam3n4 ) ( * ( - 1 ) lam3n5 ) ( * Nl2main_x1 lam3n6 ) ) 0 ) ( = ( + ( * ( - 1 ) lam3n1 ) ( * ( - 1 ) lam3n2 ) ( * ( - 1 ) lam3n3 ) ( * 1 lam3n5 ) ( * Nl2main_y1 lam3n6 ) ) 0 ) ) ))
(check-sat)
(exit)
